c WARNING: for repeatability, setting FPU to use double precision
d VARIABLES            219702       
d CONSTRAINTS          957407       
c ============================[ Problem Statistics ]=============================
c |                                                                             |
c |  Number of variables:        219702                                         |
c |  Number of clauses:          957407                                         |
c |  Parse time:                   0.16 s                                       |
c |                                                                             |
c ============================[ Search Statistics ]==============================
c | Conflicts |          ORIGINAL         |          LEARNT          | Progress |
c |           |    Vars  Clauses Literals |    Limit  Clauses Lit/Cl |          |
c ===============================================================================
c |       100 |  181843   860173  2083569 |   315396      100     10 | 17.232 % |
c |       250 |  181843   860173  2083569 |   346936      250     49 | 17.232 % |
c |       475 |  181843   860173  2083569 |   381630      475     77 | 17.232 % |
c |       812 |  181843   860173  2083569 |   419793      812     86 | 17.232 % |
c |      1318 |  181843   860173  2083569 |   461772     1318    106 | 17.232 % |
c |      2077 |  181843   860173  2083569 |   507949     2077     98 | 17.232 % |
c |      3216 |  181843   860173  2083569 |   558744     3216    113 | 17.232 % |
c |      4924 |  181843   860173  2083569 |   614619     4924    107 | 17.232 % |
c |      7486 |  181843   860173  2083569 |   676080     7486    131 | 17.232 % |
c |     11330 |  181843   860173  2083569 |   743689    11330    133 | 17.232 % |
c |     17096 |  181843   860173  2083569 |   818057    17096    170 | 17.232 % |
c |     25745 |  181843   860173  2083569 |   899863    25745    177 | 17.232 % |
c |     38719 |  181843   860173  2083569 |   989850    38719    173 | 17.232 % |
c |     58180 |  181843   860173  2083569 |  1088835    58180    174 | 17.232 % |
c |     87372 |  181843   860173  2083569 |  1197718    87372    176 | 17.232 % |
c |    131161 |  181843   860173  2083569 |  1317490   131161    161 | 17.232 % |
c |    196845 |  181843   860173  2083569 |  1449239   196845    163 | 17.232 % |
c |    295371 |  181843   860173  2083569 |  1594163   295371    152 | 17.232 % |
c |    443160 |  181843   860173  2083569 |  1753579   443160    154 | 17.232 % |
c |    664843 |  181843   860173  2083569 |  1928937   664843    160 | 17.232 % |
c |    997368 |  181843   860173  2083569 |  2121831   997368    160 | 17.232 % |
c |   1496156 |  181818   860048  2083269 |  2334014  1496084    171 | 17.243 % |
c ===============================================================================
c restarts              : 3346
c conflicts             : 1747783        (974 /sec)
c decisions             : 4792452        (0.00 % random) (2670 /sec)
c propagations          : 3974630696     (2214624 /sec)
c conflict literals     : 294877763      (41.64 % deleted)
d RESTARTS             3346
d FAILURES             1747783      
d NODES                4792452      
d BACKTRACKS           4792452      
d PROPAGATIONS         3974630696   
d NOGOODSIZE           168.72 
d MEMORY               1628.00 
d TIME                 1794.72 

s UNKNOWN
